p cnf 200 1110
-101 -3 0
-101 46 0
-101 -95 0
-101 -88 0
-101 -9 0
-101 62 0
-101 51 0
-101 66 0
-101 -14 0
-101 82 0
101 3 -46 95 88 9 -62 -51 -66 14 -82 0
-102 -22 0
-102 -28 0
-102 -41 0
-102 68 0
-102 43 0
-102 4 0
-102 81 0
-102 15 0
-102 86 0
-102 67 0
102 22 28 41 -68 -43 -4 -81 -15 -86 -67 0
-103 -79 0
-103 -72 0
-103 -76 0
-103 -1 0
-103 82 0
-103 -53 0
-103 -92 0
-103 8 0
-103 98 0
-103 61 0
103 79 72 76 1 -82 53 92 -8 -98 -61 0
-104 76 0
-104 -16 0
-104 -37 0
-104 97 0
-104 31 0
-104 39 0
-104 28 0
-104 -40 0
-104 -8 0
-104 86 0
104 -76 16 37 -97 -31 -39 -28 40 8 -86 0
-105 2 0
-105 -59 0
-105 89 0
-105 54 0
-105 -91 0
-105 33 0
-105 25 0
-105 16 0
-105 34 0
-105 -32 0
105 -2 59 -89 -54 91 -33 -25 -16 -34 32 0
-106 50 0
-106 -1 0
-106 19 0
-106 -85 0
-106 -67 0
-106 -66 0
-106 18 0
-106 35 0
-106 43 0
-106 -80 0
106 -50 1 -19 85 67 66 -18 -35 -43 80 0
-107 -93 0
-107 81 0
-107 91 0
-107 -96 0
-107 97 0
-107 -63 0
-107 71 0
-107 -68 0
-107 -33 0
-107 89 0
107 93 -81 -91 96 -97 63 -71 68 33 -89 0
-108 37 0
-108 11 0
-108 -49 0
-108 23 0
-108 68 0
-108 -53 0
-108 -64 0
-108 -17 0
-108 70 0
-108 -52 0
108 -37 -11 49 -23 -68 53 64 17 -70 52 0
-109 -21 0
-109 -59 0
-109 34 0
-109 56 0
-109 46 0
-109 42 0
-109 -70 0
-109 92 0
-109 -47 0
-109 -25 0
109 21 59 -34 -56 -46 -42 70 -92 47 25 0
-110 82 0
-110 1 0
-110 -3 0
-110 96 0
-110 -70 0
-110 -49 0
-110 -51 0
-110 -36 0
-110 11 0
-110 41 0
110 -82 -1 3 -96 70 49 51 36 -11 -41 0
101 102 103 104 105 106 107 108 109 110 0
-111 85 0
-111 -39 0
-111 63 0
-111 -4 0
-111 -83 0
-111 -36 0
-111 71 0
-111 -6 0
-111 -19 0
-111 -78 0
111 -85 39 -63 4 83 36 -71 6 19 78 0
-112 59 0
-112 95 0
-112 -78 0
-112 -9 0
-112 5 0
-112 15 0
-112 -57 0
-112 53 0
-112 11 0
-112 -4 0
112 -59 -95 78 9 -5 -15 57 -53 -11 4 0
-113 -94 0
-113 26 0
-113 37 0
-113 17 0
-113 -20 0
-113 44 0
-113 24 0
-113 -69 0
-113 6 0
-113 -63 0
113 94 -26 -37 -17 20 -44 -24 69 -6 63 0
-114 -99 0
-114 -68 0
-114 23 0
-114 -92 0
-114 -66 0
-114 -52 0
-114 -80 0
-114 61 0
-114 37 0
-114 -90 0
114 99 68 -23 92 66 52 80 -61 -37 90 0
-115 -64 0
-115 97 0
-115 -81 0
-115 66 0
-115 75 0
-115 -65 0
-115 -87 0
-115 78 0
-115 95 0
-115 -32 0
115 64 -97 81 -66 -75 65 87 -78 -95 32 0
-116 71 0
-116 2 0
-116 -41 0
-116 -83 0
-116 93 0
-116 -25 0
-116 -52 0
-116 -44 0
-116 -11 0
-116 -26 0
116 -71 -2 41 83 -93 25 52 44 11 26 0
-117 80 0
-117 87 0
-117 -72 0
-117 -67 0
-117 -32 0
-117 -4 0
-117 53 0
-117 98 0
-117 -92 0
-117 -94 0
117 -80 -87 72 67 32 4 -53 -98 92 94 0
-118 -8 0
-118 -38 0
-118 -3 0
-118 67 0
-118 -28 0
-118 -58 0
-118 18 0
-118 41 0
-118 82 0
-118 -77 0
118 8 38 3 -67 28 58 -18 -41 -82 77 0
-119 -90 0
-119 -1 0
-119 74 0
-119 -2 0
-119 65 0
-119 -79 0
-119 30 0
-119 66 0
-119 -22 0
-119 44 0
119 90 1 -74 2 -65 79 -30 -66 22 -44 0
-120 73 0
-120 1 0
-120 -64 0
-120 -38 0
-120 45 0
-120 43 0
-120 -22 0
-120 -79 0
-120 -93 0
-120 20 0
120 -73 -1 64 38 -45 -43 22 79 93 -20 0
111 112 113 114 115 116 117 118 119 120 0
-121 -31 0
-121 -96 0
-121 60 0
-121 -5 0
-121 -23 0
-121 -84 0
-121 -78 0
-121 -34 0
-121 -85 0
-121 16 0
121 31 96 -60 5 23 84 78 34 85 -16 0
-122 -59 0
-122 57 0
-122 -90 0
-122 20 0
-122 22 0
-122 88 0
-122 -84 0
-122 67 0
-122 -25 0
-122 -34 0
122 59 -57 90 -20 -22 -88 84 -67 25 34 0
-123 52 0
-123 -67 0
-123 -66 0
-123 -86 0
-123 -37 0
-123 6 0
-123 100 0
-123 -96 0
-123 18 0
-123 -97 0
123 -52 67 66 86 37 -6 -100 96 -18 97 0
-124 -25 0
-124 53 0
-124 36 0
-124 93 0
-124 -13 0
-124 -46 0
-124 81 0
-124 44 0
-124 -97 0
-124 1 0
124 25 -53 -36 -93 13 46 -81 -44 97 -1 0
-125 -42 0
-125 64 0
-125 -21 0
-125 -38 0
-125 73 0
-125 -68 0
-125 18 0
-125 75 0
-125 59 0
-125 -100 0
125 42 -64 21 38 -73 68 -18 -75 -59 100 0
-126 36 0
-126 -20 0
-126 -6 0
-126 68 0
-126 25 0
-126 -71 0
-126 39 0
-126 -89 0
-126 83 0
-126 -37 0
126 -36 20 6 -68 -25 71 -39 89 -83 37 0
-127 93 0
-127 -47 0
-127 -90 0
-127 -31 0
-127 63 0
-127 -9 0
-127 -14 0
-127 -65 0
-127 30 0
-127 -23 0
127 -93 47 90 31 -63 9 14 65 -30 23 0
-128 41 0
-128 -93 0
-128 37 0
-128 63 0
-128 74 0
-128 8 0
-128 26 0
-128 -83 0
-128 35 0
-128 -15 0
128 -41 93 -37 -63 -74 -8 -26 83 -35 15 0
-129 59 0
-129 27 0
-129 -35 0
-129 -23 0
-129 -42 0
-129 -89 0
-129 16 0
-129 18 0
-129 -71 0
-129 100 0
129 -59 -27 35 23 42 89 -16 -18 71 -100 0
-130 -98 0
-130 -19 0
-130 -73 0
-130 -35 0
-130 78 0
-130 81 0
-130 17 0
-130 -4 0
-130 56 0
-130 -24 0
130 98 19 73 35 -78 -81 -17 4 -56 24 0
121 122 123 124 125 126 127 128 129 130 0
-131 2 0
-131 -93 0
-131 79 0
-131 66 0
-131 63 0
-131 -32 0
-131 91 0
-131 76 0
-131 -97 0
-131 -59 0
131 -2 93 -79 -66 -63 32 -91 -76 97 59 0
-132 100 0
-132 -23 0
-132 -63 0
-132 14 0
-132 21 0
-132 -98 0
-132 61 0
-132 -41 0
-132 -7 0
-132 -9 0
132 -100 23 63 -14 -21 98 -61 41 7 9 0
-133 75 0
-133 -21 0
-133 -54 0
-133 22 0
-133 57 0
-133 -44 0
-133 -33 0
-133 89 0
-133 -25 0
-133 -16 0
133 -75 21 54 -22 -57 44 33 -89 25 16 0
-134 -21 0
-134 -96 0
-134 -31 0
-134 68 0
-134 6 0
-134 99 0
-134 -7 0
-134 93 0
-134 66 0
-134 84 0
134 21 96 31 -68 -6 -99 7 -93 -66 -84 0
-135 1 0
-135 -49 0
-135 38 0
-135 15 0
-135 -72 0
-135 23 0
-135 8 0
-135 -55 0
-135 -36 0
-135 -32 0
135 -1 49 -38 -15 72 -23 -8 55 36 32 0
-136 79 0
-136 -75 0
-136 15 0
-136 -63 0
-136 61 0
-136 77 0
-136 7 0
-136 -2 0
-136 49 0
-136 18 0
136 -79 75 -15 63 -61 -77 -7 2 -49 -18 0
-137 53 0
-137 78 0
-137 -68 0
-137 43 0
-137 15 0
-137 91 0
-137 -16 0
-137 -9 0
-137 -66 0
-137 28 0
137 -53 -78 68 -43 -15 -91 16 9 66 -28 0
-138 32 0
-138 26 0
-138 24 0
-138 -3 0
-138 89 0
-138 57 0
-138 -63 0
-138 82 0
-138 39 0
-138 -29 0
138 -32 -26 -24 3 -89 -57 63 -82 -39 29 0
-139 8 0
-139 35 0
-139 -60 0
-139 -46 0
-139 61 0
-139 -44 0
-139 -31 0
-139 -45 0
-139 86 0
-139 75 0
139 -8 -35 60 46 -61 44 31 45 -86 -75 0
-140 6 0
-140 32 0
-140 99 0
-140 -67 0
-140 60 0
-140 24 0
-140 80 0
-140 48 0
-140 83 0
-140 36 0
140 -6 -32 -99 67 -60 -24 -80 -48 -83 -36 0
131 132 133 134 135 136 137 138 139 140 0
-141 38 0
-141 20 0
-141 -52 0
-141 -65 0
-141 82 0
-141 66 0
-141 76 0
-141 -34 0
-141 -55 0
-141 -6 0
141 -38 -20 52 65 -82 -66 -76 34 55 6 0
-142 -57 0
-142 -98 0
-142 -50 0
-142 84 0
-142 62 0
-142 89 0
-142 77 0
-142 -3 0
-142 -23 0
-142 83 0
142 57 98 50 -84 -62 -89 -77 3 23 -83 0
-143 22 0
-143 -44 0
-143 13 0
-143 87 0
-143 -33 0
-143 -59 0
-143 35 0
-143 -58 0
-143 93 0
-143 -57 0
143 -22 44 -13 -87 33 59 -35 58 -93 57 0
-144 68 0
-144 -88 0
-144 -44 0
-144 13 0
-144 18 0
-144 -42 0
-144 -66 0
-144 3 0
-144 -96 0
-144 2 0
144 -68 88 44 -13 -18 42 66 -3 96 -2 0
-145 -65 0
-145 27 0
-145 44 0
-145 -16 0
-145 36 0
-145 -18 0
-145 -10 0
-145 26 0
-145 83 0
-145 -58 0
145 65 -27 -44 16 -36 18 10 -26 -83 58 0
-146 -31 0
-146 -77 0
-146 4 0
-146 86 0
-146 -42 0
-146 -58 0
-146 85 0
-146 -52 0
-146 45 0
-146 57 0
146 31 77 -4 -86 42 58 -85 52 -45 -57 0
-147 -23 0
-147 -17 0
-147 -28 0
-147 -12 0
-147 -39 0
-147 40 0
-147 48 0
-147 16 0
-147 24 0
-147 6 0
147 23 17 28 12 39 -40 -48 -16 -24 -6 0
-148 -29 0
-148 -75 0
-148 -74 0
-148 63 0
-148 -44 0
-148 -80 0
-148 20 0
-148 71 0
-148 6 0
-148 -61 0
148 29 75 74 -63 44 80 -20 -71 -6 61 0
-149 7 0
-149 85 0
-149 -15 0
-149 -28 0
-149 93 0
-149 -27 0
-149 86 0
-149 -13 0
-149 70 0
-149 24 0
149 -7 -85 15 28 -93 27 -86 13 -70 -24 0
-150 47 0
-150 21 0
-150 -6 0
-150 -8 0
-150 44 0
-150 66 0
-150 -60 0
-150 -78 0
-150 90 0
-150 -64 0
150 -47 -21 6 8 -44 -66 60 78 -90 64 0
141 142 143 144 145 146 147 148 149 150 0
-151 97 0
-151 -21 0
-151 16 0
-151 40 0
-151 57 0
-151 -88 0
-151 -20 0
-151 51 0
-151 83 0
-151 71 0
151 -97 21 -16 -40 -57 88 20 -51 -83 -71 0
-152 74 0
-152 87 0
-152 8 0
-152 18 0
-152 -33 0
-152 -4 0
-152 -59 0
-152 -92 0
-152 31 0
-152 -17 0
152 -74 -87 -8 -18 33 4 59 92 -31 17 0
-153 -84 0
-153 58 0
-153 19 0
-153 -10 0
-153 22 0
-153 32 0
-153 -79 0
-153 88 0
-153 -18 0
-153 -82 0
153 84 -58 -19 10 -22 -32 79 -88 18 82 0
-154 -11 0
-154 -20 0
-154 -33 0
-154 16 0
-154 -48 0
-154 100 0
-154 38 0
-154 89 0
-154 42 0
-154 -56 0
154 11 20 33 -16 48 -100 -38 -89 -42 56 0
-155 -97 0
-155 -99 0
-155 -5 0
-155 -57 0
-155 -96 0
-155 -93 0
-155 -46 0
-155 73 0
-155 -70 0
-155 92 0
155 97 99 5 57 96 93 46 -73 70 -92 0
-156 -23 0
-156 48 0
-156 74 0
-156 2 0
-156 3 0
-156 -68 0
-156 88 0
-156 46 0
-156 30 0
-156 -86 0
156 23 -48 -74 -2 -3 68 -88 -46 -30 86 0
-157 3 0
-157 25 0
-157 51 0
-157 -58 0
-157 -28 0
-157 -33 0
-157 100 0
-157 22 0
-157 53 0
-157 29 0
157 -3 -25 -51 58 28 33 -100 -22 -53 -29 0
-158 71 0
-158 66 0
-158 -38 0
-158 -95 0
-158 64 0
-158 89 0
-158 -15 0
-158 -20 0
-158 100 0
-158 -87 0
158 -71 -66 38 95 -64 -89 15 20 -100 87 0
-159 -7 0
-159 91 0
-159 43 0
-159 45 0
-159 54 0
-159 -14 0
-159 38 0
-159 -23 0
-159 96 0
-159 -58 0
159 7 -91 -43 -45 -54 14 -38 23 -96 58 0
-160 41 0
-160 -32 0
-160 39 0
-160 -71 0
-160 62 0
-160 -64 0
-160 60 0
-160 57 0
-160 76 0
-160 -73 0
160 -41 32 -39 71 -62 64 -60 -57 -76 73 0
151 152 153 154 155 156 157 158 159 160 0
-161 -30 0
-161 47 0
-161 74 0
-161 27 0
-161 26 0
-161 -17 0
-161 -23 0
-161 -57 0
-161 -90 0
-161 1 0
161 30 -47 -74 -27 -26 17 23 57 90 -1 0
-162 69 0
-162 -82 0
-162 25 0
-162 -50 0
-162 54 0
-162 27 0
-162 18 0
-162 -14 0
-162 92 0
-162 77 0
162 -69 82 -25 50 -54 -27 -18 14 -92 -77 0
-163 -13 0
-163 51 0
-163 99 0
-163 -50 0
-163 -66 0
-163 -19 0
-163 48 0
-163 -18 0
-163 -53 0
-163 73 0
163 13 -51 -99 50 66 19 -48 18 53 -73 0
-164 50 0
-164 -6 0
-164 -47 0
-164 -33 0
-164 -73 0
-164 -61 0
-164 -91 0
-164 -64 0
-164 25 0
-164 -89 0
164 -50 6 47 33 73 61 91 64 -25 89 0
-165 -50 0
-165 73 0
-165 -71 0
-165 -18 0
-165 -5 0
-165 52 0
-165 -32 0
-165 -66 0
-165 -7 0
-165 -26 0
165 50 -73 71 18 5 -52 32 66 7 26 0
-166 -59 0
-166 97 0
-166 -71 0
-166 30 0
-166 99 0
-166 -63 0
-166 -41 0
-166 9 0
-166 -10 0
-166 29 0
166 59 -97 71 -30 -99 63 41 -9 10 -29 0
-167 -70 0
-167 62 0
-167 38 0
-167 91 0
-167 -35 0
-167 -59 0
-167 43 0
-167 -23 0
-167 -82 0
-167 10 0
167 70 -62 -38 -91 35 59 -43 23 82 -10 0
-168 -71 0
-168 -11 0
-168 40 0
-168 12 0
-168 97 0
-168 -99 0
-168 -79 0
-168 -21 0
-168 70 0
-168 95 0
168 71 11 -40 -12 -97 99 79 21 -70 -95 0
-169 53 0
-169 -81 0
-169 -94 0
-169 -11 0
-169 -27 0
-169 56 0
-169 -23 0
-169 -97 0
-169 -99 0
-169 14 0
169 -53 81 94 11 27 -56 23 97 99 -14 0
-170 84 0
-170 -32 0
-170 -89 0
-170 -59 0
-170 -90 0
-170 20 0
-170 -45 0
-170 67 0
-170 66 0
-170 -43 0
170 -84 32 89 59 90 -20 45 -67 -66 43 0
161 162 163 164 165 166 167 168 169 170 0
-171 50 0
-171 -43 0
-171 4 0
-171 30 0
-171 70 0
-171 -5 0
-171 83 0
-171 -88 0
-171 -7 0
-171 71 0
171 -50 43 -4 -30 -70 5 -83 88 7 -71 0
-172 -38 0
-172 58 0
-172 -4 0
-172 80 0
-172 -15 0
-172 -95 0
-172 -84 0
-172 -50 0
-172 -41 0
-172 -87 0
172 38 -58 4 -80 15 95 84 50 41 87 0
-173 -96 0
-173 -4 0
-173 -70 0
-173 -40 0
-173 -39 0
-173 -6 0
-173 -53 0
-173 -65 0
-173 -36 0
-173 -41 0
173 96 4 70 40 39 6 53 65 36 41 0
-174 -88 0
-174 -39 0
-174 98 0
-174 76 0
-174 -18 0
-174 -67 0
-174 75 0
-174 -83 0
-174 -5 0
-174 72 0
174 88 39 -98 -76 18 67 -75 83 5 -72 0
-175 -28 0
-175 55 0
-175 -89 0
-175 -90 0
-175 -54 0
-175 3 0
-175 23 0
-175 21 0
-175 36 0
-175 16 0
175 28 -55 89 90 54 -3 -23 -21 -36 -16 0
-176 99 0
-176 -62 0
-176 82 0
-176 -78 0
-176 50 0
-176 73 0
-176 -91 0
-176 12 0
-176 44 0
-176 -53 0
176 -99 62 -82 78 -50 -73 91 -12 -44 53 0
-177 -91 0
-177 -75 0
-177 50 0
-177 9 0
-177 -93 0
-177 -84 0
-177 76 0
-177 64 0
-177 14 0
-177 24 0
177 91 75 -50 -9 93 84 -76 -64 -14 -24 0
-178 44 0
-178 54 0
-178 -59 0
-178 55 0
-178 -16 0
-178 100 0
-178 -99 0
-178 -57 0
-178 -68 0
-178 60 0
178 -44 -54 59 -55 16 -100 99 57 68 -60 0
-179 -78 0
-179 58 0
-179 -37 0
-179 -66 0
-179 -2 0
-179 -67 0
-179 51 0
-179 -23 0
-179 33 0
-179 -62 0
179 78 -58 37 66 2 67 -51 23 -33 62 0
-180 23 0
-180 57 0
-180 97 0
-180 65 0
-180 -49 0
-180 56 0
-180 -58 0
-180 -95 0
-180 -86 0
-180 -55 0
180 -23 -57 -97 -65 49 -56 58 95 86 55 0
171 172 173 174 175 176 177 178 179 180 0
-181 91 0
-181 -82 0
-181 76 0
-181 20 0
-181 92 0
-181 -100 0
-181 90 0
-181 -55 0
-181 96 0
-181 89 0
181 -91 82 -76 -20 -92 100 -90 55 -96 -89 0
-182 -36 0
-182 -56 0
-182 -100 0
-182 -59 0
-182 85 0
-182 82 0
-182 -17 0
-182 99 0
-182 32 0
-182 -49 0
182 36 56 100 59 -85 -82 17 -99 -32 49 0
-183 49 0
-183 25 0
-183 -35 0
-183 -34 0
-183 31 0
-183 97 0
-183 -1 0
-183 42 0
-183 98 0
-183 -16 0
183 -49 -25 35 34 -31 -97 1 -42 -98 16 0
-184 -64 0
-184 95 0
-184 25 0
-184 -5 0
-184 59 0
-184 50 0
-184 77 0
-184 -47 0
-184 -11 0
-184 63 0
184 64 -95 -25 5 -59 -50 -77 47 11 -63 0
-185 -41 0
-185 -13 0
-185 58 0
-185 44 0
-185 -36 0
-185 -32 0
-185 -43 0
-185 -29 0
-185 -30 0
-185 -83 0
185 41 13 -58 -44 36 32 43 29 30 83 0
-186 -39 0
-186 -73 0
-186 -55 0
-186 23 0
-186 87 0
-186 -27 0
-186 -26 0
-186 35 0
-186 83 0
-186 57 0
186 39 73 55 -23 -87 27 26 -35 -83 -57 0
-187 -91 0
-187 69 0
-187 -27 0
-187 -20 0
-187 45 0
-187 -82 0
-187 -33 0
-187 -41 0
-187 -24 0
-187 21 0
187 91 -69 27 20 -45 82 33 41 24 -21 0
-188 17 0
-188 93 0
-188 35 0
-188 72 0
-188 -99 0
-188 -85 0
-188 86 0
-188 13 0
-188 -69 0
-188 -22 0
188 -17 -93 -35 -72 99 85 -86 -13 69 22 0
-189 -69 0
-189 -50 0
-189 -74 0
-189 -34 0
-189 -63 0
-189 61 0
-189 83 0
-189 -13 0
-189 23 0
-189 8 0
189 69 50 74 34 63 -61 -83 13 -23 -8 0
-190 -100 0
-190 72 0
-190 -34 0
-190 -77 0
-190 -36 0
-190 -29 0
-190 19 0
-190 -31 0
-190 88 0
-190 85 0
190 100 -72 34 77 36 29 -19 31 -88 -85 0
181 182 183 184 185 186 187 188 189 190 0
-191 -66 0
-191 -47 0
-191 -11 0
-191 -100 0
-191 25 0
-191 -89 0
-191 64 0
-191 70 0
-191 34 0
-191 -9 0
191 66 47 11 100 -25 89 -64 -70 -34 9 0
-192 91 0
-192 37 0
-192 -51 0
-192 -67 0
-192 -94 0
-192 -50 0
-192 68 0
-192 -100 0
-192 -92 0
-192 -43 0
192 -91 -37 51 67 94 50 -68 100 92 43 0
-193 39 0
-193 -90 0
-193 71 0
-193 -27 0
-193 -54 0
-193 -95 0
-193 70 0
-193 74 0
-193 18 0
-193 -9 0
193 -39 90 -71 27 54 95 -70 -74 -18 9 0
-194 99 0
-194 -35 0
-194 -30 0
-194 31 0
-194 -17 0
-194 -16 0
-194 -57 0
-194 -87 0
-194 -86 0
-194 65 0
194 -99 35 30 -31 17 16 57 87 86 -65 0
-195 23 0
-195 -49 0
-195 90 0
-195 -97 0
-195 36 0
-195 34 0
-195 -82 0
-195 79 0
-195 91 0
-195 -85 0
195 -23 49 -90 97 -36 -34 82 -79 -91 85 0
-196 90 0
-196 -93 0
-196 -84 0
-196 -31 0
-196 75 0
-196 32 0
-196 -14 0
-196 -20 0
-196 60 0
-196 25 0
196 -90 93 84 31 -75 -32 14 20 -60 -25 0
-197 49 0
-197 -28 0
-197 -96 0
-197 89 0
-197 4 0
-197 58 0
-197 79 0
-197 65 0
-197 51 0
-197 -27 0
197 -49 28 96 -89 -4 -58 -79 -65 -51 27 0
-198 -44 0
-198 74 0
-198 -46 0
-198 -52 0
-198 89 0
-198 94 0
-198 -24 0
-198 91 0
-198 -22 0
-198 -85 0
198 44 -74 46 52 -89 -94 24 -91 22 85 0
-199 -40 0
-199 10 0
-199 55 0
-199 -69 0
-199 71 0
-199 16 0
-199 -23 0
-199 -57 0
-199 -28 0
-199 -33 0
199 40 -10 -55 69 -71 -16 23 57 28 33 0
-200 -3 0
-200 89 0
-200 34 0
-200 81 0
-200 19 0
-200 43 0
-200 20 0
-200 13 0
-200 8 0
-200 -51 0
200 3 -89 -34 -81 -19 -43 -20 -13 -8 51 0
191 192 193 194 195 196 197 198 199 200 0
